benchmarks/bfuzz0/23578247358903247711863317365145942.smt2
(set-logic QF_FP)
(declare-const x0 (_ FloatingPoint 11 53))
(declare-const x1 (_ FloatingPoint 11 53))
(declare-const x2 (_ FloatingPoint 11 53))
(declare-const x3 (_ FloatingPoint 11 53))
(declare-const x4 (_ FloatingPoint 11 53))
(declare-const x5 (_ FloatingPoint 11 53))
(declare-const x6 (_ FloatingPoint 11 53))
(declare-const x7 (_ FloatingPoint 11 53))
(declare-const x8 (_ FloatingPoint 11 53))
(declare-const x9 (_ FloatingPoint 11 53))
(declare-const x10 (_ FloatingPoint 11 53))
(declare-const x11 (_ FloatingPoint 11 53))
(declare-const x12 (_ FloatingPoint 11 53))
(declare-const x13 (_ FloatingPoint 11 53))
(declare-const x14 (_ FloatingPoint 11 53))
(declare-const x15 (_ FloatingPoint 11 53))
(declare-const x16 (_ FloatingPoint 11 53))
(declare-const x17 (_ FloatingPoint 11 53))
(declare-const x18 (_ FloatingPoint 11 53))
(declare-const x19 (_ FloatingPoint 11 53))
(declare-const x20 (_ FloatingPoint 11 53))
(declare-const x21 (_ FloatingPoint 11 53))
(declare-const x22 (_ FloatingPoint 11 53))
(assert (fp.eq (fp.neg (fp.sub RNE (fp.sub RNE x7 x1) (fp.mul RNE x5 x15))) (fp.sub RNE (fp.mul RNE (fp.add RNE x19 x14) (fp.neg x11)) (fp.sub RNE (fp.div RNE x8 x9) (fp.sub RNE x12 x3)))))
(assert (fp.geq (fp.add RNE (fp.add RNE (fp.neg x10) (fp.div RNE x10 x2)) (fp.neg (fp.add RNE x10 x2))) (fp.sub RNE (fp.sub RNE (fp.mul RNE x8 x2) (fp.mul RNE x22 x5)) (fp.div RNE (fp.add RNE x22 x9) (fp.neg x15)))))
(assert (fp.gt (fp.neg (fp.add RNE (fp.neg x16) (fp.mul RNE x10 x19))) (fp.neg (fp.neg (fp.neg x1)))))
(assert (fp.leq (fp.mul RNE (fp.sub RNE (fp.mul RNE x5 x18) (fp.mul RNE x2 x16)) (fp.neg (fp.div RNE x11 x4))) (fp.div RNE (fp.mul RNE (fp.neg x6) (fp.neg x0)) (fp.sub RNE (fp.mul RNE x16 x20) (fp.neg x6)))))
(assert (fp.geq (fp.neg (fp.sub RNE (fp.add RNE x15 x6) (fp.div RNE x8 x17))) (fp.add RNE (fp.neg (fp.neg x20)) (fp.neg (fp.mul RNE x18 x21)))))
(assert (fp.lt (fp.div RNE (fp.neg (fp.div RNE x3 x4)) (fp.mul RNE (fp.neg x5) (fp.mul RNE x3 x5))) (fp.mul RNE (fp.mul RNE (fp.neg x3) (fp.add RNE x5 x4)) (fp.neg (fp.add RNE x8 x20)))))
(check-sat)
