db/data/23578247358903247711863317365145942.z3.out
-------------------
2500.240678738
